% From JaCoP's nonogramRepository/data121.nin
 rows = 15;
 row_rule_len = 3;
 row_rules = array2d(1..rows, 1..row_rule_len, 
[
 0,0,5,
 0,7,4,
 2,3,7,
 2,2,7,
 3,2,7,
 0,10,7,
 0,0,14,
 0,3,3,
 0,0,15,
 0,10,6,
 3,3,6,
 2,2,6,
 3,3,6,
 0,7,3,
 0,0,5
]);

 cols = 25;
 col_rule_len = 4;
 col_rules = array2d(1..cols, 1..col_rule_len, 
[
 0,0,4,3,
 0,0,6,5,
 2,2,3,3,
 2,2,2,2,
 2,2,2,2,
 3,2,2,2,
 3,2,2,3,
 0,0,5,6,
 0,0,0,9,
 0,0,0,6,
 0,0,0,5,
 0,0,1,1,
 0,0,0,4,
 0,0,0,5,
 0,0,0,6,
 0,0,3,3,
 0,0,4,3,
 0,0,3,3,
 0,0,4,3,
 0,0,3,3,
 0,0,4,3,
 0,0,3,3,
 0,0,3,3,
 0,0,2,2,
 0,0,1,1
]);

